NAME: instance_1983
TYPE: TSP
DIMENSION: 20
EDGE_WEIGHT_TYPE: EUC_2D
NODE_COORD_SECTION
0 25.38 33.83
1 10.79 82.90
2 19.51 48.04
3 73.29 25.80
4 90.16 14.60
5 48.08 0.99
6 66.54 85.80
7 69.17 8.85
8 28.21 11.44
9 45.93 72.75
10 97.06 87.32
11 93.73 18.66
12 86.63 0.04
13 38.80 18.38
14 61.55 65.18
15 83.91 83.22
16 1.64 39.75
17 58.08 17.83
18 78.12 25.73
19 19.99 58.05
EOF
